NAME : X-n157-k13
COMMENT : "Generated by Uchoa, Pecin, Pessoa, Poggi, Subramanian, and Vidal (2013)"
TYPE : CVRP
DIMENSION : 157
EDGE_WEIGHT_TYPE : EUC_2D
CAPACITY : 12
NODE_COORD_SECTION
1 769 259
2 91 377
3 108 338
4 816 567
5 725 520
6 117 357
7 766 559
8 90 417
9 255 430
10 63 384
11 35 276
12 122 318
13 85 322
14 267 348
15 937 546
16 865 461
17 863 547
18 724 431
19 148 144
20 243 571
21 871 512
22 782 596
23 77 272
24 776 650
25 166 371
26 69 239
27 972 607
28 320 521
29 91 434
30 20 305
31 81 271
32 776 669
33 830 553
34 148 243
35 160 202
36 741 527
37 877 561
38 587 551
39 808 435
40 26 278
41 58 394
42 755 444
43 817 557
44 165 367
45 216 510
46 124 330
47 96 587
48 132 369
49 163 234
50 915 492
51 753 657
52 161 319
53 37 227
54 898 747
55 770 524
56 745 582
57 695 469
58 124 355
59 11 283
60 258 406
61 72 335
62 713 399
63 866 626
64 214 344
65 213 349
66 864 577
67 98 440
68 701 512
69 884 559
70 842 518
71 125 379
72 352 410
73 206 228
74 825 592
75 93 252
76 863 511
77 98 347
78 115 326
79 71 392
80 96 248
81 65 404
82 75 342
83 140 300
84 129 340
85 129 273
86 846 696
87 109 463
88 863 586
89 139 356
90 77 351
91 154 322
92 231 323
93 115 394
94 844 558
95 98 454
96 739 568
97 179 443
98 862 618
99 764 764
100 844 554
101 174 319
102 703 319
103 151 453
104 863 569
105 72 473
106 632 575
107 823 578
108 26 42
109 47 381
110 71 336
111 754 484
112 137 465
113 80 355
114 172 296
115 28 310
116 754 579
117 531 662
118 87 382
119 866 481
120 93 337
121 942 567
122 788 567
123 824 451
124 926 901
125 182 500
126 98 384
127 104 370
128 48 462
129 952 629
130 239 324
131 138 516
132 747 605
133 136 460
134 748 624
135 43 268
136 792 597
137 95 352
138 109 413
139 67 224
140 104 386
141 817 672
142 183 360
143 922 652
144 779 419
145 863 721
146 40 456
147 66 395
148 862 465
149 383 357
150 307 434
151 233 421
152 329 280
153 623 554
154 103 349
155 736 688
156 75 266
157 174 406
PICKUP_AND_DELIVERY_SECTION
1 0 0 1000000000 0 0 0
2 0 0 1000000000 0 0.7586 0.2414
3 0 0 1000000000 0 0.6805 0.3195
4 0 0 1000000000 0 0.3051 0.6949
5 0 0 1000000000 0 0.2828 0.7172
6 0 0 1000000000 0 0.6723 0.3277
7 0 0 1000000000 0 0.2702 0.7298
8 0 0 1000000000 0 0.7842 0.2158
9 0 0 1000000000 0 0.407 0.593
10 0 0 1000000000 0 0.8359 0.1641
11 0 0 1000000000 0 0.8732 0.1268
12 0 0 1000000000 0 0.6164 0.3836
13 0 0 1000000000 0 0.736 0.264
14 0 0 1000000000 0 0.2328 0.7672
15 0 0 1000000000 0 0.4173 0.5827
16 0 0 1000000000 0 0.4671 0.5329
17 0 0 1000000000 0 0.3662 0.6338
18 0 0 1000000000 0 0.4047 0.5953
19 0 0 1000000000 0 0.02703 0.973
20 0 0 1000000000 0 0.5744 0.4256
21 0 0 1000000000 0 0.4122 0.5878
22 0 0 1000000000 0 0.2379 0.7621
23 0 0 1000000000 0 0.7169 0.2831
24 0 0 1000000000 0 0.1624 0.8376
25 0 0 1000000000 0 0.5526 0.4474
26 0 0 1000000000 0 0.7113 0.2887
27 0 0 1000000000 0 0.3755 0.6245
28 0 0 1000000000 0 0.3858 0.6142
29 0 0 1000000000 0 0.7903 0.2097
30 0 0 1000000000 0 0.9344 0.06557
31 0 0 1000000000 0 0.7011 0.2989
32 0 0 1000000000 0 0.1379 0.8621
33 0 0 1000000000 0 0.3337 0.6663
34 0 0 1000000000 0 0.3909 0.6091
35 0 0 1000000000 0 0.2079 0.7921
36 0 0 1000000000 0 0.2888 0.7112
37 0 0 1000000000 0 0.3603 0.6397
38 0 0 1000000000 0 0.06133 0.9387
39 0 0 1000000000 0 0.4616 0.5384
40 0 0 1000000000 0 0.9065 0.09353
41 0 0 1000000000 0 0.8528 0.1472
42 0 0 1000000000 0 0.4119 0.5881
43 0 0 1000000000 0 0.3182 0.6818
44 0 0 1000000000 0 0.5504 0.4496
45 0 0 1000000000 0 0.5765 0.4235
46 0 0 1000000000 0 0.6242 0.3758
47 0 0 1000000000 0 0.8365 0.1635
48 0 0 1000000000 0 0.6423 0.3577
49 0 0 1000000000 0 0.3034 0.6966
50 0 0 1000000000 0 0.4623 0.5377
51 0 0 1000000000 0 0.1275 0.8725
52 0 0 1000000000 0 0.4953 0.5047
53 0 0 1000000000 0 0.837 0.163
54 0 0 1000000000 0 0.1682 0.8318
55 0 0 1000000000 0 0.3195 0.6805
56 0 0 1000000000 0 0.2188 0.7812
57 0 0 1000000000 0 0.3252 0.6748
58 0 0 1000000000 0 0.6507 0.3493
59 0 0 1000000000 0 0.9611 0.03887
60 0 0 1000000000 0 0.3645 0.6355
61 0 0 1000000000 0 0.7851 0.2149
62 0 0 1000000000 0 0.4404 0.5596
63 0 0 1000000000 0 0.2771 0.7229
64 0 0 1000000000 0 0.3779 0.6221
65 0 0 1000000000 0 0.3897 0.6103
66 0 0 1000000000 0 0.3322 0.6678
67 0 0 1000000000 0 0.7773 0.2227
68 0 0 1000000000 0 0.2696 0.7304
69 0 0 1000000000 0 0.3676 0.6324
70 0 0 1000000000 0 0.3848 0.6152
71 0 0 1000000000 0 0.6702 0.3298
72 0 0 1000000000 0 0.1415 0.8585
73 0 0 1000000000 0 0.09649 0.9035
74 0 0 1000000000 0 0.2824 0.7176
75 0 0 1000000000 0 0.631 0.369
76 0 0 1000000000 0 0.4079 0.5921
77 0 0 1000000000 0 0.7176 0.2824
78 0 0 1000000000 0 0.6472 0.3528
79 0 0 1000000000 0 0.8189 0.1811
80 0 0 1000000000 0 0.6129 0.3871
81 0 0 1000000000 0 0.8391 0.1609
82 0 0 1000000000 0 0.7807 0.2193
83 0 0 1000000000 0 0.5333 0.4667
84 0 0 1000000000 0 0.6206 0.3794
85 0 0 1000000000 0 0.5275 0.4725
86 0 0 1000000000 0 0.1773 0.8227
87 0 0 1000000000 0 0.7646 0.2354
88 0 0 1000000000 0 0.321 0.679
89 0 0 1000000000 0 0.6096 0.3904
90 0 0 1000000000 0 0.7806 0.2194
91 0 0 1000000000 0 0.5217 0.4783
92 0 0 1000000000 0 0.2848 0.7152
93 0 0 1000000000 0 0.7081 0.2919
94 0 0 1000000000 0 0.3389 0.6611
95 0 0 1000000000 0 0.7841 0.2159
96 0 0 1000000000 0 0.2314 0.7686
97 0 0 1000000000 0 0.5959 0.4041
98 0 0 1000000000 0 0.2831 0.7169
99 0 0 1000000000 0 0 1
100 0 0 1000000000 0 0.3436 0.6564
101 0 0 1000000000 0 0.4545 0.5455
102 0 0 1000000000 0 0.5462 0.4538
103 0 0 1000000000 0 0.6667 0.3333
104 0 0 1000000000 0 0.3407 0.6593
105 0 0 1000000000 0 0.8478 0.1522
106 0 0 1000000000 0 0.09019 0.9098
107 0 0 1000000000 0 0.2977 0.7023
108 0 0 1000000000 0 0.381 0.619
109 0 0 1000000000 0 0.8766 0.1234
110 0 0 1000000000 0 0.7887 0.2113
111 0 0 1000000000 0 0.3581 0.6419
112 0 0 1000000000 0 0.7054 0.2946
113 0 0 1000000000 0 0.7746 0.2254
114 0 0 1000000000 0 0.4189 0.5811
115 0 0 1000000000 0 0.9097 0.09032
116 0 0 1000000000 0 0.2321 0.7679
117 0 0 1000000000 0 0.1979 0.8021
118 0 0 1000000000 0 0.7723 0.2277
119 0 0 1000000000 0 0.4446 0.5554
120 0 0 1000000000 0 0.724 0.276
121 0 0 1000000000 0 0.3981 0.6019
122 0 0 1000000000 0 0.2805 0.7195
123 0 0 1000000000 0 0.4527 0.5473
124 0 0 1000000000 0 0.027 0.973
125 0 0 1000000000 0 0.636 0.364
126 0 0 1000000000 0 0.7448 0.2552
127 0 0 1000000000 0 0.7189 0.2811
128 0 0 1000000000 0 0.8961 0.1039
129 0 0 1000000000 0 0.3393 0.6607
130 0 0 1000000000 0 0.2623 0.7377
131 0 0 1000000000 0 0.7326 0.2674
132 0 0 1000000000 0 0.1901 0.8099
133 0 0 1000000000 0 0.7043 0.2957
134 0 0 1000000000 0 0.1658 0.8342
135 0 0 1000000000 0 0.8396 0.1604
136 0 0 1000000000 0 0.2462 0.7538
137 0 0 1000000000 0 0.7301 0.2699
138 0 0 1000000000 0 0.7361 0.2639
139 0 0 1000000000 0 0.7009 0.2991
140 0 0 1000000000 0 0.7306 0.2694
141 0 0 1000000000 0 0.1775 0.8225
142 0 0 1000000000 0 0.4917 0.5083
143 0 0 1000000000 0 0.2928 0.7072
144 0 0 1000000000 0 0.4621 0.5379
145 0 0 1000000000 0 0.1645 0.8355
146 0 0 1000000000 0 0.9123 0.08772
147 0 0 1000000000 0 0.8329 0.1671
148 0 0 1000000000 0 0.4606 0.5394
149 0 0 1000000000 0 0.06789 0.9321
150 0 0 1000000000 0 0.2926 0.7074
151 0 0 1000000000 0 0.4466 0.5534
152 0 0 1000000000 0 0.1489 0.8511
153 0 0 1000000000 0 0.1108 0.8892
154 0 0 1000000000 0 0.7049 0.2951
155 0 0 1000000000 0 0.06522 0.9348
156 0 0 1000000000 0 0.718 0.282
157 0 0 1000000000 0 0.5714 0.4286
